n_res = 4;
rc = [ 20, 20, 13, 18 ];
n_tasks = 30;
d = [ 2, 3, 7, 1, 8, 3, 3, 2, 9, 10, 8, 6, 3, 1, 9, 7, 4, 1, 5, 9, 4, 7, 6, 5, 7, 1, 6, 4, 5, 3 ];
rr = [| 20, 20, 20, 20, 20, 20, 20, 20, 20, 20, 20, 20, 20, 20, 20, 20, 20, 20, 20, 20, 20, 20, 20, 20, 20, 20, 20, 20, 20, 20
      | 20, 20, 20, 20, 20, 20, 20, 20, 20, 20, 20, 20, 20, 20, 20, 20, 20, 20, 20, 20, 20, 20, 20, 20, 20, 20, 20, 20, 20, 20
      | 13, 13, 13, 13, 13, 13, 13, 13, 13, 13, 13, 13, 13, 13, 13, 13, 13, 13, 13, 13, 13, 13, 13, 13, 13, 13, 13, 13, 13, 13
      | 18, 18, 18, 18, 18, 18, 18, 18, 18, 18, 18, 18, 18, 18, 18, 18, 18, 18, 18, 18, 18, 18, 18, 18, 18, 18, 18, 18, 18, 18|];
suc = [ { 27 },
       { 11 },
       { 4, 5, 10 },
       { 7, 13 },
       { 6 },
       { 26 },
       { 8, 9, 11 },
       { 15 },
       { 12, 16 },
       { 28 },
       { 18, 19 },
       { 19, 25 },
       { 14 },
       { 18, 23, 25 },
       { 16, 17, 20 },
       { 26 },
       { 29 },
       { 24 },
       { 21, 22, 24 },
       { 22, 23 },
       { 29 },
       { 30 },
       { 26 },
       { 30 },
       { 28 },
       { 29 },
       { 28 },
       {  },
       {  },
       {  } ];
